p cnf 11 35
-10 -14 -22 0
-4 -14 -22 0
-4 -8 -14 0
-4 -10 -14 0
-4 -14 -18 0
-4 -14 -27 0
-6 -14 -22 0
-14 -18 -27 0
-14 -18 -22 0
-4 -8 -22 0
-4 -8 -18 0
-6 -10 -27 0
-10 -18 -27 0
-10 -18 -22 0
-6 -18 -22 0
-19 -23 -27 0
-6 -10 -18 0
-10 -14 -18 0
-4 -8 -12 0
-4 -8 -27 0
-10 -23 -27 0
-6 -23 -27 0
-4 -23 -27 0
-4 -18 -22 0
-4 -18 -27 0
-6 -18 -27 0
-6 -14 -18 0
-6 -10 -22 0
-6 -10 -14 0
-4 -10 -22 0
-14 -23 -27 0
-6 -14 -27 0
-10 -14 -27 0
-4 -10 -27 0
-4 -10 -18 0
